c Reduced graph for GEOM80a_2 generated by Cyril Grelier
p edge 73 557
e 1 2
e 1 3
e 1 6
e 1 7
e 1 10
e 1 12
e 1 25
e 1 27
e 1 36
e 1 38
e 1 41
e 1 50
e 1 51
e 1 53
e 1 55
e 1 61
e 1 73
e 2 3
e 2 6
e 2 7
e 2 10
e 2 12
e 2 25
e 2 27
e 2 36
e 2 38
e 2 41
e 2 50
e 2 51
e 2 53
e 2 55
e 2 61
e 3 5
e 3 10
e 3 12
e 3 25
e 3 27
e 3 36
e 3 41
e 3 47
e 3 50
e 3 51
e 3 55
e 3 61
e 3 64
e 4 8
e 4 15
e 4 21
e 4 22
e 4 29
e 4 30
e 4 40
e 4 44
e 4 46
e 4 57
e 4 67
e 5 10
e 5 25
e 5 27
e 5 41
e 5 47
e 5 50
e 5 51
e 5 61
e 5 64
e 6 7
e 6 10
e 6 18
e 6 25
e 6 27
e 6 36
e 6 38
e 6 41
e 6 50
e 6 51
e 6 53
e 6 55
e 6 61
e 6 63
e 6 73
e 7 10
e 7 17
e 7 25
e 7 27
e 7 34
e 7 36
e 7 45
e 7 50
e 7 51
e 7 53
e 7 55
e 7 56
e 7 63
e 7 73
e 8 15
e 8 18
e 8 21
e 8 22
e 8 29
e 8 30
e 8 38
e 8 40
e 8 44
e 8 46
e 8 53
e 8 57
e 8 63
e 8 67
e 8 71
e 9 15
e 9 19
e 9 20
e 9 21
e 9 29
e 9 34
e 9 40
e 9 49
e 9 57
e 9 60
e 9 62
e 9 67
e 9 68
e 9 69
e 9 70
e 9 71
e 10 25
e 10 27
e 10 41
e 10 47
e 10 50
e 10 51
e 10 55
e 10 61
e 10 64
e 11 13
e 11 16
e 11 23
e 11 24
e 11 35
e 11 37
e 11 39
e 11 45
e 11 56
e 11 66
e 12 27
e 12 36
e 12 41
e 12 55
e 12 61
e 13 16
e 13 23
e 13 24
e 13 35
e 13 39
e 14 16
e 14 17
e 14 23
e 14 26
e 14 28
e 14 31
e 14 32
e 14 33
e 14 34
e 14 35
e 14 37
e 14 42
e 14 45
e 14 48
e 14 49
e 14 52
e 14 54
e 14 56
e 14 58
e 14 66
e 15 20
e 15 21
e 15 22
e 15 29
e 15 30
e 15 40
e 15 46
e 15 57
e 15 60
e 15 62
e 15 67
e 15 69
e 15 70
e 15 71
e 16 17
e 16 23
e 16 24
e 16 35
e 16 39
e 16 45
e 16 50
e 16 56
e 16 64
e 16 66
e 16 73
e 17 25
e 17 34
e 17 35
e 17 45
e 17 50
e 17 51
e 17 56
e 17 66
e 17 73
e 18 22
e 18 30
e 18 38
e 18 40
e 18 44
e 18 53
e 18 63
e 18 67
e 19 20
e 19 26
e 19 31
e 19 32
e 19 43
e 19 48
e 19 49
e 19 54
e 19 58
e 19 59
e 19 60
e 19 62
e 19 65
e 19 68
e 19 69
e 19 70
e 19 71
e 19 72
e 20 31
e 20 34
e 20 40
e 20 48
e 20 49
e 20 57
e 20 60
e 20 62
e 20 67
e 20 68
e 20 69
e 20 70
e 20 71
e 21 22
e 21 29
e 21 30
e 21 40
e 21 44
e 21 46
e 21 57
e 21 62
e 21 67
e 21 71
e 22 29
e 22 30
e 22 40
e 22 44
e 22 46
e 22 57
e 22 63
e 22 67
e 23 24
e 23 28
e 23 33
e 23 35
e 23 37
e 23 39
e 23 52
e 23 66
e 24 35
e 24 37
e 24 39
e 25 27
e 25 36
e 25 41
e 25 45
e 25 47
e 25 50
e 25 51
e 25 53
e 25 55
e 25 56
e 25 61
e 25 64
e 25 73
e 26 28
e 26 31
e 26 32
e 26 33
e 26 35
e 26 37
e 26 42
e 26 43
e 26 48
e 26 49
e 26 52
e 26 54
e 26 58
e 26 59
e 26 66
e 26 68
e 26 72
e 27 36
e 27 41
e 27 47
e 27 50
e 27 51
e 27 53
e 27 55
e 27 61
e 27 64
e 28 31
e 28 32
e 28 33
e 28 35
e 28 37
e 28 42
e 28 48
e 28 52
e 28 54
e 28 58
e 28 66
e 29 30
e 29 40
e 29 44
e 29 46
e 29 57
e 29 62
e 29 67
e 29 71
e 30 40
e 30 44
e 30 46
e 30 57
e 30 63
e 30 67
e 31 32
e 31 33
e 31 34
e 31 35
e 31 37
e 31 42
e 31 43
e 31 48
e 31 49
e 31 52
e 31 54
e 31 58
e 31 59
e 31 66
e 31 68
e 31 69
e 31 70
e 31 72
e 32 33
e 32 37
e 32 42
e 32 43
e 32 48
e 32 49
e 32 52
e 32 54
e 32 58
e 32 59
e 32 66
e 32 68
e 32 72
e 33 35
e 33 37
e 33 42
e 33 48
e 33 49
e 33 52
e 33 54
e 33 58
e 33 59
e 33 66
e 33 72
e 34 40
e 34 45
e 34 48
e 34 49
e 34 53
e 34 56
e 34 66
e 34 69
e 34 70
e 34 71
e 34 73
e 35 37
e 35 39
e 35 45
e 35 52
e 35 56
e 35 66
e 36 38
e 36 41
e 36 50
e 36 51
e 36 53
e 36 55
e 36 61
e 37 42
e 37 52
e 37 54
e 37 58
e 37 66
e 38 44
e 38 53
e 38 55
e 38 63
e 40 44
e 40 46
e 40 53
e 40 57
e 40 62
e 40 63
e 40 67
e 40 69
e 40 71
e 41 47
e 41 50
e 41 51
e 41 55
e 41 61
e 41 64
e 42 43
e 42 48
e 42 49
e 42 52
e 42 54
e 42 58
e 42 59
e 42 68
e 42 72
e 43 48
e 43 49
e 43 54
e 43 58
e 43 59
e 43 60
e 43 65
e 43 68
e 43 70
e 43 72
e 44 46
e 44 53
e 44 57
e 44 63
e 44 67
e 45 50
e 45 51
e 45 56
e 45 64
e 45 66
e 45 73
e 46 57
e 46 67
e 47 50
e 47 51
e 47 61
e 47 64
e 48 49
e 48 52
e 48 54
e 48 58
e 48 59
e 48 60
e 48 65
e 48 66
e 48 68
e 48 69
e 48 70
e 48 72
e 49 52
e 49 54
e 49 58
e 49 59
e 49 60
e 49 65
e 49 66
e 49 68
e 49 69
e 49 70
e 49 72
e 50 51
e 50 53
e 50 55
e 50 56
e 50 64
e 50 73
e 51 53
e 51 55
e 51 56
e 51 61
e 51 64
e 51 73
e 52 54
e 52 58
e 52 59
e 52 66
e 52 68
e 52 72
e 53 55
e 53 63
e 53 73
e 54 58
e 54 59
e 54 66
e 54 68
e 54 72
e 55 61
e 56 66
e 56 73
e 57 60
e 57 62
e 57 63
e 57 67
e 57 69
e 57 71
e 58 59
e 58 68
e 58 72
e 59 65
e 59 68
e 59 70
e 59 72
e 60 62
e 60 65
e 60 67
e 60 68
e 60 69
e 60 70
e 60 71
e 62 65
e 62 67
e 62 69
e 62 70
e 62 71
e 63 67
e 65 68
e 65 69
e 65 70
e 65 72
e 66 73
e 67 69
e 67 71
e 68 69
e 68 70
e 68 72
e 69 70
e 69 71
e 70 71
